webassembly/ejemplos_dzn/folder12_json_41.dzn
TERM = { '.', 's(2)', 's(5)', 's(4)', 'in_1', 'local_0', 'local_1', 'in_6', 'in_2', 'in_4', 'in_3', 's(8)', 's(6)', 's(1)', 's(0)', 's(7)', 'in_5', 's(3)', 'in_0'};
null = '.';
s = 12;
n = 12;
ndeps = 11;
max_registers_sz = 5;
NR = 2;
registers = [|'local_0', 's(7)', |'local_1', 's(8)'|];
dependencies = [|'i32.load8_u_1', 'call[function_index(0)]_2', |'call[function_index(0)]_2', 'i32.load_3', |'call[function_index(0)]_2', 'i32.load8_u_4', |'call[function_index(0)]_2', 'i32.load8_s_5', |'call[function_index(0)]_2', 'i32.load8_u_6', |'call[function_index(0)]_2', 'i32.load16_s_7', |'i32.load_3', 'i32.store8_9', |'i32.load8_u_4', 'i32.store8_9', |'i32.load8_s_5', 'i32.store8_9', |'i32.load8_u_6', 'i32.store8_9', |'i32.load16_s_7', 'i32.store8_9'|];
GET_ENUM = { GET1, GET2, GET3, GET4, GET5, GET6, GET7};
SET_ENUM = { SET1, SET2, SET3, SET4, SET5, SET6, SET7};
TEE_ENUM = { TEE1, TEE2, TEE3, TEE4, TEE5, TEE6, TEE7};
N = 10;
OP = { 'i32.add_0', 'call[function_index(0)]_2', 'i32.sub_0', 'i32.load8_u_1', 'i32.load_3', 'i32.load8_u_4', 'i32.load8_s_5', 'i32.load8_u_6', 'i32.load16_s_7', 'i32.store8_9' };
in_ops = [2, 2, 2, 1, 1, 1, 1, 1, 1, 2 ];
out_ops = [1, 1, 1, 1, 1, 1, 1, 1, 1, 0 ];
in1 = ['in_5', 's(1)', 'in_0', 's(0)', 's(2)', 's(3)', 's(4)', 's(5)', 's(6)', 'in_3' ];
in2 = ['in_6', 'in_2', 'in_1', '.', '.', '.', '.', '.', '.', 'in_4' ];
in3 = ['.', '.', '.', '.', '.', '.', '.', '.', '.', '.' ];
out1 = ['s(8)', 's(2)', 's(0)', 's(1)', 's(3)', 's(4)', 's(5)', 's(6)', 's(7)', '.' ];
out2 = ['.', '.', '.', '.', '.', '.', '.', '.', '.', '.' ];
out3 = ['.', '.', '.', '.', '.', '.', '.', '.', '.', '.' ];
comm = [true, false, false, false, false, false, false, false, false, false ];
gas = [1, 1, 1, 1, 1, 1, 1, 1, 1, 1 ];
sz = [1, 1, 1, 1, 1, 1, 1, 1, 1, 1 ];
stor = [false, true, false, false, false, false, false, false, false, true ];
lb = [ 1, 1, 1, 1, 1, 1, 1, 1, 1, 1 ];
ub = [ 12, 12, 12, 12, 12, 12, 12, 12, 12, 12 ];
startstack = [ 'in_0', 'in_1', 'in_2', 'in_3', 'in_4', 'in_5', 'in_6', null, null, null, null, null ];
endstack = [ 's(8)', null, null, null, null, null, null, null, null, null, null, null ];
