webassembly/ejemplos_results/12/folder12_json_41.txt
value = 12;
fgas = [1, 1, 1, 1, 1, 1, 1, 1, 1, 1, 1, 1];
fsize = [1, 1, 1, 1, 1, 1, 1, 1, 1, 1, 1, 1];
states = 
[|   in_0,   in_1, in_2, in_3, in_4, in_5, in_6, '.', '.', '.', '.', '.'
 | 's(0)',   in_2, in_3, in_4, in_5, in_6,  '.', '.', '.', '.', '.', '.'
 | 's(1)',   in_2, in_3, in_4, in_5, in_6,  '.', '.', '.', '.', '.', '.'
 | 's(2)',   in_3, in_4, in_5, in_6,  '.',  '.', '.', '.', '.', '.', '.'
 | 's(3)',   in_3, in_4, in_5, in_6,  '.',  '.', '.', '.', '.', '.', '.'
 | 's(4)',   in_3, in_4, in_5, in_6,  '.',  '.', '.', '.', '.', '.', '.'
 | 's(5)',   in_3, in_4, in_5, in_6,  '.',  '.', '.', '.', '.', '.', '.'
 | 's(6)',   in_3, in_4, in_5, in_6,  '.',  '.', '.', '.', '.', '.', '.'
 | 's(7)',   in_3, in_4, in_5, in_6,  '.',  '.', '.', '.', '.', '.', '.'
 |   in_3,   in_4, in_5, in_6,  '.',  '.',  '.', '.', '.', '.', '.', '.'
 |   in_5,   in_6,  '.',  '.',  '.',  '.',  '.', '.', '.', '.', '.', '.'
 | 's(8)', 's(8)',  '.',  '.',  '.',  '.',  '.', '.', '.', '.', '.', '.'
 | 's(8)',    '.',  '.',  '.',  '.',  '.',  '.', '.', '.', '.', '.', '.'
 |];
register_states = 
[| local_0, local_1, '.', '.', '.', '.', '.'
 | local_0, local_1, '.', '.', '.', '.', '.'
 | local_0, local_1, '.', '.', '.', '.', '.'
 | local_0, local_1, '.', '.', '.', '.', '.'
 | local_0, local_1, '.', '.', '.', '.', '.'
 | local_0, local_1, '.', '.', '.', '.', '.'
 | local_0, local_1, '.', '.', '.', '.', '.'
 | local_0, local_1, '.', '.', '.', '.', '.'
 | local_0, local_1, '.', '.', '.', '.', '.'
 |  's(7)', local_1, '.', '.', '.', '.', '.'
 |  's(7)', local_1, '.', '.', '.', '.', '.'
 |  's(7)', local_1, '.', '.', '.', '.', '.'
 |  's(7)',  's(8)', '.', '.', '.', '.', '.'
 |];
program = [O('i32.sub_0'), O('i32.load8_u_1'), O('call[function_index(0)]_2'), O('i32.load_3'), O('i32.load8_u_4'), O('i32.load8_s_5'), O('i32.load8_u_6'), O('i32.load16_s_7'), S(SET1), O('i32.store8_9'), O('i32.add_0'), S(SET2)];
% time elapsed: 0.49 s
----------
==========
% time elapsed: 0.50 s
% [value > 11]
